5 5
3 91 1 90 4 56 2 90 0 74
3 58 2 81 4 51 1 32 0 88
2 48 0 8 1 30 4 26 3 24
2 27 0 79 4 92 3 75 1 39
3 66 2 51 0 73 4 50 1 45
-1
0 1 3 4 5
0 2 3 4 5
0 1 2 4 5
0 1 2 3 5
0 1 3 4 5
-2
141 238 497 453
164 283 309 362
60 74 166 214
34 158 263 477
99 245 328 334

501 12
16 11 22 9 4
12 1 8 19 24
15 10 6 21 3
5 0 20 18 14
17 7 2 23 13
